&CONTROL
  calculation = 'bands',
  prefix = 'graphene',
  outdir = './tmp/',
  pseudo_dir = '../pseudo/',
  tstress = .true.,
  tprnfor = .true.,
  verbosity='high',
  !wf_collect = .true.,  ! Collect wavefunctions
  !disk_io = 'high'  ! Manage I/O to avoid excessive memory usage
/


&SYSTEM
  ibrav     = 0,  ! old is 4
  nat  = 2,
  ntyp = 1,
  ecutwfc = 20.0 
  ecutrho = 200.0 
  nosym = .true.
  noinv = .true.
  nbnd=8
/

&ELECTRONS
  mixing_beta = 0.7,
  conv_thr = 1.0d-8
/

ATOMIC_SPECIES
  C  12.011  C.pbe-n-kjpaw_psl.1.0.0.UPF

! ATOMIC_SPECIES
!   C  12.011  C.rel-pbe-n-rrkjus_psl.0.1.UPF

CELL_PARAMETERS {angstrom}
  2.13  1.23  0.0
  2.13 -1.23  0.0
  0.0   0.0   10.0

ATOMIC_POSITIONS {crystal}
  C 1/3 1/3 0.0
  C 2/3 2/3 0.0

K_POINTS {crystal_b}
169
  0.0000000000  0.0000000000 0.0000000000  1
  0.0833333333  0.0000000000 0.0000000000  1
  0.1666666667  0.0000000000 0.0000000000  1
  0.2500000000  0.0000000000 0.0000000000  1
  0.3333333333  0.0000000000 0.0000000000  1
  0.4166666667  0.0000000000 0.0000000000  1
  0.5000000000  0.0000000000 0.0000000000  1
  0.5833333333  0.0000000000 0.0000000000  1
  0.6666666667  0.0000000000 0.0000000000  1
  0.7500000000  0.0000000000 0.0000000000  1
  0.8333333333  0.0000000000 0.0000000000  1
  0.9166666667  0.0000000000 0.0000000000  1
  1.0000000000  0.0000000000 0.0000000000  1
  0.0000000000  0.0833333333 0.0000000000  1
  0.0833333333  0.0833333333 0.0000000000  1
  0.1666666667  0.0833333333 0.0000000000  1
  0.2500000000  0.0833333333 0.0000000000  1
  0.3333333333  0.0833333333 0.0000000000  1
  0.4166666667  0.0833333333 0.0000000000  1
  0.5000000000  0.0833333333 0.0000000000  1
  0.5833333333  0.0833333333 0.0000000000  1
  0.6666666667  0.0833333333 0.0000000000  1
  0.7500000000  0.0833333333 0.0000000000  1
  0.8333333333  0.0833333333 0.0000000000  1
  0.9166666667  0.0833333333 0.0000000000  1
  1.0000000000  0.0833333333 0.0000000000  1
  0.0000000000  0.1666666667 0.0000000000  1
  0.0833333333  0.1666666667 0.0000000000  1
  0.1666666667  0.1666666667 0.0000000000  1
  0.2500000000  0.1666666667 0.0000000000  1
  0.3333333333  0.1666666667 0.0000000000  1
  0.4166666667  0.1666666667 0.0000000000  1
  0.5000000000  0.1666666667 0.0000000000  1
  0.5833333333  0.1666666667 0.0000000000  1
  0.6666666667  0.1666666667 0.0000000000  1
  0.7500000000  0.1666666667 0.0000000000  1
  0.8333333333  0.1666666667 0.0000000000  1
  0.9166666667  0.1666666667 0.0000000000  1
  1.0000000000  0.1666666667 0.0000000000  1
  0.0000000000  0.2500000000 0.0000000000  1
  0.0833333333  0.2500000000 0.0000000000  1
  0.1666666667  0.2500000000 0.0000000000  1
  0.2500000000  0.2500000000 0.0000000000  1
  0.3333333333  0.2500000000 0.0000000000  1
  0.4166666667  0.2500000000 0.0000000000  1
  0.5000000000  0.2500000000 0.0000000000  1
  0.5833333333  0.2500000000 0.0000000000  1
  0.6666666667  0.2500000000 0.0000000000  1
  0.7500000000  0.2500000000 0.0000000000  1
  0.8333333333  0.2500000000 0.0000000000  1
  0.9166666667  0.2500000000 0.0000000000  1
  1.0000000000  0.2500000000 0.0000000000  1
  0.0000000000  0.3333333333 0.0000000000  1
  0.0833333333  0.3333333333 0.0000000000  1
  0.1666666667  0.3333333333 0.0000000000  1
  0.2500000000  0.3333333333 0.0000000000  1
  0.3333333333  0.3333333333 0.0000000000  1
  0.4166666667  0.3333333333 0.0000000000  1
  0.5000000000  0.3333333333 0.0000000000  1
  0.5833333333  0.3333333333 0.0000000000  1
  0.6666666667  0.3333333333 0.0000000000  1
  0.7500000000  0.3333333333 0.0000000000  1
  0.8333333333  0.3333333333 0.0000000000  1
  0.9166666667  0.3333333333 0.0000000000  1
  1.0000000000  0.3333333333 0.0000000000  1
  0.0000000000  0.4166666667 0.0000000000  1
  0.0833333333  0.4166666667 0.0000000000  1
  0.1666666667  0.4166666667 0.0000000000  1
  0.2500000000  0.4166666667 0.0000000000  1
  0.3333333333  0.4166666667 0.0000000000  1
  0.4166666667  0.4166666667 0.0000000000  1
  0.5000000000  0.4166666667 0.0000000000  1
  0.5833333333  0.4166666667 0.0000000000  1
  0.6666666667  0.4166666667 0.0000000000  1
  0.7500000000  0.4166666667 0.0000000000  1
  0.8333333333  0.4166666667 0.0000000000  1
  0.9166666667  0.4166666667 0.0000000000  1
  1.0000000000  0.4166666667 0.0000000000  1
  0.0000000000  0.5000000000 0.0000000000  1
  0.0833333333  0.5000000000 0.0000000000  1
  0.1666666667  0.5000000000 0.0000000000  1
  0.2500000000  0.5000000000 0.0000000000  1
  0.3333333333  0.5000000000 0.0000000000  1
  0.4166666667  0.5000000000 0.0000000000  1
  0.5000000000  0.5000000000 0.0000000000  1
  0.5833333333  0.5000000000 0.0000000000  1
  0.6666666667  0.5000000000 0.0000000000  1
  0.7500000000  0.5000000000 0.0000000000  1
  0.8333333333  0.5000000000 0.0000000000  1
  0.9166666667  0.5000000000 0.0000000000  1
  1.0000000000  0.5000000000 0.0000000000  1
  0.0000000000  0.5833333333 0.0000000000  1
  0.0833333333  0.5833333333 0.0000000000  1
  0.1666666667  0.5833333333 0.0000000000  1
  0.2500000000  0.5833333333 0.0000000000  1
  0.3333333333  0.5833333333 0.0000000000  1
  0.4166666667  0.5833333333 0.0000000000  1
  0.5000000000  0.5833333333 0.0000000000  1
  0.5833333333  0.5833333333 0.0000000000  1
  0.6666666667  0.5833333333 0.0000000000  1
  0.7500000000  0.5833333333 0.0000000000  1
  0.8333333333  0.5833333333 0.0000000000  1
  0.9166666667  0.5833333333 0.0000000000  1
  1.0000000000  0.5833333333 0.0000000000  1
  0.0000000000  0.6666666667 0.0000000000  1
  0.0833333333  0.6666666667 0.0000000000  1
  0.1666666667  0.6666666667 0.0000000000  1
  0.2500000000  0.6666666667 0.0000000000  1
  0.3333333333  0.6666666667 0.0000000000  1
  0.4166666667  0.6666666667 0.0000000000  1
  0.5000000000  0.6666666667 0.0000000000  1
  0.5833333333  0.6666666667 0.0000000000  1
  0.6666666667  0.6666666667 0.0000000000  1
  0.7500000000  0.6666666667 0.0000000000  1
  0.8333333333  0.6666666667 0.0000000000  1
  0.9166666667  0.6666666667 0.0000000000  1
  1.0000000000  0.6666666667 0.0000000000  1
  0.0000000000  0.7500000000 0.0000000000  1
  0.0833333333  0.7500000000 0.0000000000  1
  0.1666666667  0.7500000000 0.0000000000  1
  0.2500000000  0.7500000000 0.0000000000  1
  0.3333333333  0.7500000000 0.0000000000  1
  0.4166666667  0.7500000000 0.0000000000  1
  0.5000000000  0.7500000000 0.0000000000  1
  0.5833333333  0.7500000000 0.0000000000  1
  0.6666666667  0.7500000000 0.0000000000  1
  0.7500000000  0.7500000000 0.0000000000  1
  0.8333333333  0.7500000000 0.0000000000  1
  0.9166666667  0.7500000000 0.0000000000  1
  1.0000000000  0.7500000000 0.0000000000  1
  0.0000000000  0.8333333333 0.0000000000  1
  0.0833333333  0.8333333333 0.0000000000  1
  0.1666666667  0.8333333333 0.0000000000  1
  0.2500000000  0.8333333333 0.0000000000  1
  0.3333333333  0.8333333333 0.0000000000  1
  0.4166666667  0.8333333333 0.0000000000  1
  0.5000000000  0.8333333333 0.0000000000  1
  0.5833333333  0.8333333333 0.0000000000  1
  0.6666666667  0.8333333333 0.0000000000  1
  0.7500000000  0.8333333333 0.0000000000  1
  0.8333333333  0.8333333333 0.0000000000  1
  0.9166666667  0.8333333333 0.0000000000  1
  1.0000000000  0.8333333333 0.0000000000  1
  0.0000000000  0.9166666667 0.0000000000  1
  0.0833333333  0.9166666667 0.0000000000  1
  0.1666666667  0.9166666667 0.0000000000  1
  0.2500000000  0.9166666667 0.0000000000  1
  0.3333333333  0.9166666667 0.0000000000  1
  0.4166666667  0.9166666667 0.0000000000  1
  0.5000000000  0.9166666667 0.0000000000  1
  0.5833333333  0.9166666667 0.0000000000  1
  0.6666666667  0.9166666667 0.0000000000  1
  0.7500000000  0.9166666667 0.0000000000  1
  0.8333333333  0.9166666667 0.0000000000  1
  0.9166666667  0.9166666667 0.0000000000  1
  1.0000000000  0.9166666667 0.0000000000  1
  0.0000000000  1.0000000000 0.0000000000  1
  0.0833333333  1.0000000000 0.0000000000  1
  0.1666666667  1.0000000000 0.0000000000  1
  0.2500000000  1.0000000000 0.0000000000  1
  0.3333333333  1.0000000000 0.0000000000  1
  0.4166666667  1.0000000000 0.0000000000  1
  0.5000000000  1.0000000000 0.0000000000  1
  0.5833333333  1.0000000000 0.0000000000  1
  0.6666666667  1.0000000000 0.0000000000  1
  0.7500000000  1.0000000000 0.0000000000  1
  0.8333333333  1.0000000000 0.0000000000  1
  0.9166666667  1.0000000000 0.0000000000  1
  1.0000000000  1.0000000000 0.0000000000  1
